s td 888 2 1104
b 1 1
b 2 2 628
b 3 3 653
b 4 3 883
b 5 4
b 6 5 741
b 7 6
b 8 7
b 9 8
b 10 9 369
b 11 9 454
b 12 10 522
b 13 11 763
b 14 12
b 15 13
b 16 14 953
b 17 15
b 18 16 525
b 19 525 526
b 20 17 526
b 21 17 1027
b 22 1027 1028
b 23 645 646
b 24 18 646
b 25 18 1063
b 26 19 1064
b 27 20 316
b 28 21 371
b 29 21 835
b 30 835 836
b 31 22 372
b 32 23 719
b 33 24 720
b 34 719 720
b 35 720
b 36 25 887
b 37 887 888
b 38 26 455
b 39 27 329
b 40 27 456
b 41 27 849
b 42 28
b 43 29 1001
b 44 30
b 45 31
b 46 32
b 47 33 929
b 48 639 640
b 49 58 640
b 50 743 744
b 51 58 743
b 52 58 930
b 53 929 930
b 54 930
b 55 34 765
b 56 35 766
b 57 765 766
b 58 766
b 59 36 343
b 60 37
b 61 38
b 62 39 660
b 63 659 660
b 64 660
b 65 40 442
b 66 41
b 67 661 662
b 68 42 662
b 69 42 1097
b 70 43 923
b 71 44 319
b 72 45 805
b 73 46
b 74 47
b 75 48
b 76 49
b 77 50 595
b 78 51
b 79 52
b 80 53
b 81 54 1036
b 82 55 309
b 83 56 332
b 84 331 332
b 85 332
b 86 57 824
b 87 59 647
b 88 487 488
b 89 60 488
b 90 60 658
b 91 61 597
b 92 61 690
b 93 62 531
b 94 531 532
b 95 63 532
b 96 63 767
b 97 64
b 98 65 419
b 99 65 566
b 100 66 420
b 101 66 825
b 102 67 826
b 103 68 1052
b 104 1051 1052
b 105 1052
b 106 757 758
b 107 69 757
b 108 69 892
b 109 891 892
b 110 892
b 111 70 544
b 112 389 390
b 113 71 389
b 114 71 567
b 115 567 568
b 116 72
b 117 73
b 118 74 778
b 119 777 778
b 120 778
b 121 75 851
b 122 76 294
b 123 293 294
b 124 294
b 125 77 725
b 126 725 726
b 127 78 489
b 128 79 853
b 129 80 854
b 130 853 854
b 131 854
b 132 81 779
b 133 82 388
b 134 83 403
b 135 83 985
b 136 84 648
b 137 85 988
b 138 86 598
b 139 87 989
b 140 989 990
b 141 88 466
b 142 89 1055
b 143 90 376
b 144 91 377
b 145 679 680
b 146 92 680
b 147 92 1079
b 148 1079 1080
b 149 93 421
b 150 629 630
b 151 94 630
b 152 94 875
b 153 875 876
b 154 95 537
b 155 96
b 156 97
b 157 98 580
b 158 98 391
b 159 391 392
b 160 99 392
b 161 99 769
b 162 100 770
b 163 101 345
b 164 101 704
b 165 102 1066
b 166 103
b 167 104
b 168 106 780
b 169 811 812
b 170 105 812
b 171 105 799
b 172 799 800
b 173 106 800
b 174 106 1081
b 175 108 986
b 176 108 600
b 177 599 600
b 178 107 599
b 179 107 1082
b 180 109 866
b 181 865 866
b 182 866
b 183 110 1018
b 184 111
b 185 469 470
b 186 112 470
b 187 112 1020
b 188 113
b 189 114
b 190 115 705
b 191 115 931
b 192 931 932
b 193 116 378
b 194 117 1083
b 195 118 1100
b 196 1099 1100
b 197 1100
b 198 297 298
b 199 119 297
b 200 119 708
b 201 120 538
b 202 379 380
b 203 121 379
b 204 121 813
b 205 122
b 206 123 323
b 207 123 946
b 208 124 324
b 209 125 1069
b 210 126 858
b 211 127 933
b 212 128
b 213 129 709
b 214 347 348
b 215 130 348
b 216 130 710
b 217 131
b 218 132 475
b 219 132 602
b 220 133
b 221 559 560
b 222 134 560
b 223 134 730
b 224 134 1003
b 225 135 693
b 226 136 717
b 227 137 718
b 228 717 718
b 229 718
b 230 138 815
b 231 815 816
b 232 139 927
b 233 139 1009
b 234 140 561
b 235 140 928
b 236 141 562
b 237 142 1084
b 238 143 641
b 239 144
b 240 145
b 241 146 1058
b 242 147 761
b 243 148 1021
b 244 1021 1022
b 245 149
b 246 859 860
b 247 151 859
b 248 151 632
b 249 631 632
b 250 150 631
b 251 150 1070
b 252 957 958
b 253 152 957
b 254 152 1086
b 255 153
b 256 154 936
b 257 935 936
b 258 936
b 259 155
b 260 156 802
b 261 156 1039
b 262 157 1040
b 263 158 408
b 264 159 840
b 265 160
b 266 186 302
b 267 186 606
b 268 605 606
b 269 161 605
b 270 161 921
b 271 162 650
b 272 163 643
b 273 643 644
b 274 164 353
b 275 164 1010
b 276 165 495
b 277 166 478
b 278 477 478
b 279 478
b 280 167
b 281 168 642
b 282 169 841
b 283 170 424
b 284 781 782
b 285 171 781
b 286 171 904
b 287 903 904
b 288 904
b 289 172
b 290 173 905
b 291 173 1090
b 292 1089 1090
b 293 1090
b 294 175 518
b 295 517 518
b 296 174 517
b 297 174 746
b 298 745 746
b 299 746
b 300 176
b 301 177 337
b 302 177 584
b 303 583 584
b 304 584
b 305 178 338
b 306 179
b 307 180
b 308 181 634
b 309 182
b 310 183 1071
b 311 184
b 312 185
b 313 187
b 314 188
b 315 189 445
b 316 445 446
b 317 190 496
b 318 190 734
b 319 191 433
b 320 192
b 321 193 551
b 322 551 552
b 323 194 1012
b 324 1011 1012
b 325 1012
b 326 195 843
b 327 843 844
b 328 196
b 329 393 394
b 330 197 394
b 331 197 461
b 332 461 462
b 333 198
b 334 199 621
b 335 621 622
b 336 200
b 337 201 395
b 338 201 411
b 339 202 412
b 340 202 786
b 341 203 359
b 342 203 482
b 343 204 360
b 344 230 908
b 345 205 327
b 346 607 608
b 347 205 608
b 348 205 907
b 349 907 908
b 350 908
b 351 206 328
b 352 206 460
b 353 207 683
b 354 208 684
b 355 683 684
b 356 684
b 357 209
b 358 210 540
b 359 211 536
b 360 211 817
b 361 817 818
b 362 212 1073
b 363 213
b 364 214 436
b 365 215
b 366 216
b 367 217
b 368 218
b 369 219 512
b 370 220 554
b 371 221
b 372 222 483
b 373 483 484
b 374 223 803
b 375 224 804
b 376 225
b 377 226 820
b 378 227 1075
b 379 228
b 380 229 789
b 381 229 963
b 382 229 1104
b 383 1103 1104
b 384 1104
b 385 231
b 386 232 400
b 387 232 747
b 388 233 748
b 389 234 414
b 390 235 365
b 391 365 366
b 392 236 912
b 393 236 1033
b 394 791 792
b 395 237 791
b 396 237 1034
b 397 238
b 398 239
b 399 240 976
b 400 241 735
b 401 242 398
b 402 242 736
b 403 735 736
b 404 736
b 405 243 368
b 406 367 368
b 407 368
b 408 244 588
b 409 245
b 410 246 672
b 411 246 713
b 412 713 714
b 413 247 415
b 414 248
b 415 249 571
b 416 571 572
b 417 250
b 418 251 698
b 419 252 500
b 420 253 675
b 421 675 676
b 422 254
b 423 255 573
b 424 256
b 425 257
b 426 258
b 427 259
b 428 260
b 429 589 590
b 430 261 590
b 431 261 881
b 432 262
b 433 263 637
b 434 264 830
b 435 265
b 436 266 1094
b 437 267 516
b 438 267 737
b 439 737 738
b 440 268 610
b 441 269
b 442 270 677
b 443 270 846
b 444 271
b 445 272
b 446 273
b 447 274
b 448 275
b 449 276
b 450 277 872
b 451 278
b 452 847 848
b 453 279 847
b 454 279 1096
b 455 280
b 456 281
b 457 282
b 458 283
b 459 284 793
b 460 285 341
b 461 286 822
b 462 286 981
b 463 287
b 464 288
b 465 289
b 466 290
b 467 291 292
b 468 295
b 469 296
b 470 299 300
b 471 301
b 472 303
b 473 304
b 474 305
b 475 306
b 476 307 308
b 477 310
b 478 311 312
b 479 313
b 480 314
b 481 315
b 482 317 318
b 483 320
b 484 321 322
b 485 325 326
b 486 330
b 487 333
b 488 334
b 489 335 336
b 490 339
b 491 340
b 492 342
b 493 344
b 494 346
b 495 349
b 496 350
b 497 351
b 498 352
b 499 354
b 500 355
b 501 356
b 502 357 358
b 503 361
b 504 362
b 505 363
b 506 364
b 507 370
b 508 373
b 509 374
b 510 375
b 511 381
b 512 382
b 513 383 384
b 514 385 386
b 515 387
b 516 396
b 517 397
b 518 399
b 519 401
b 520 402
b 521 404
b 522 405
b 523 406
b 524 407
b 525 409
b 526 410
b 527 413
b 528 416
b 529 417
b 530 418
b 531 422
b 532 423
b 533 425
b 534 426
b 535 427
b 536 428
b 537 429
b 538 430
b 539 431
b 540 432
b 541 434
b 542 435
b 543 437 438
b 544 439
b 545 440
b 546 441
b 547 443
b 548 444
b 549 447 448
b 550 449
b 551 450
b 552 451 452
b 553 453
b 554 457
b 555 458
b 556 459
b 557 463
b 558 464
b 559 465
b 560 467 468
b 561 471
b 562 472
b 563 473
b 564 474
b 565 476
b 566 479
b 567 480
b 568 481
b 569 485
b 570 486
b 571 490
b 572 491
b 573 492
b 574 493
b 575 494
b 576 497
b 577 498
b 578 499
b 579 501
b 580 502
b 581 503
b 582 504
b 583 505
b 584 506
b 585 507 508
b 586 509 510
b 587 511
b 588 513
b 589 514
b 590 515
b 591 519
b 592 520
b 593 521
b 594 523 524
b 595 527 528
b 596 529
b 597 530
b 598 533 534
b 599 535
b 600 539
b 601 541
b 602 542
b 603 543
b 604 545 546
b 605 547 548
b 606 549
b 607 550
b 608 553
b 609 555 556
b 610 557 558
b 611 563
b 612 564
b 613 565
b 614 569
b 615 570
b 616 574
b 617 575
b 618 576
b 619 577
b 620 578
b 621 579
b 622 581 582
b 623 585
b 624 586
b 625 587
b 626 591 592
b 627 593
b 628 594
b 629 596
b 630 601
b 631 603
b 632 604
b 633 609
b 634 611
b 635 612
b 636 613 614
b 637 615
b 638 616
b 639 617 618
b 640 619
b 641 620
b 642 623 624
b 643 625 626
b 644 627
b 645 633
b 646 635 636
b 647 638
b 648 649
b 649 651
b 650 652
b 651 654
b 652 655
b 653 656
b 654 657
b 655 663
b 656 664
b 657 665
b 658 666
b 659 667
b 660 668
b 661 669 670
b 662 671
b 663 673
b 664 674
b 665 678
b 666 681
b 667 682
b 668 685
b 669 686
b 670 687 688
b 671 689
b 672 691 692
b 673 694
b 674 695
b 675 696
b 676 697
b 677 699
b 678 700
b 679 701 702
b 680 703
b 681 706
b 682 707
b 683 711
b 684 712
b 685 715
b 686 716
b 687 721
b 688 722
b 689 723 724
b 690 727
b 691 728
b 692 729
b 693 731
b 694 732
b 695 733
b 696 739
b 697 740
b 698 742
b 699 749 750
b 700 751
b 701 752
b 702 753 754
b 703 755
b 704 756
b 705 759
b 706 760
b 707 762
b 708 764
b 709 768
b 710 771
b 711 772
b 712 773
b 713 774
b 714 775
b 715 776
b 716 783
b 717 784
b 718 785
b 719 787
b 720 788
b 721 790
b 722 794
b 723 795
b 724 796
b 725 797
b 726 798
b 727 801
b 728 806
b 729 807
b 730 808
b 731 809 810
b 732 814
b 733 819
b 734 821
b 735 823
b 736 827
b 737 828
b 738 829
b 739 831
b 740 832
b 741 833
b 742 834
b 743 837
b 744 838
b 745 839
b 746 842
b 747 845
b 748 850
b 749 852
b 750 855 856
b 751 857
b 752 861 862
b 753 863
b 754 864
b 755 867 868
b 756 869
b 757 870
b 758 871
b 759 873
b 760 874
b 761 877 878
b 762 879
b 763 880
b 764 882
b 765 884
b 766 885 886
b 767 889
b 768 890
b 769 893 894
b 770 895
b 771 896
b 772 897
b 773 898
b 774 899
b 775 900
b 776 901
b 777 902
b 778 906
b 779 909
b 780 910
b 781 911
b 782 913 914
b 783 915 916
b 784 917 918
b 785 919 920
b 786 922
b 787 924
b 788 925
b 789 926
b 790 934
b 791 937
b 792 938
b 793 939 940
b 794 941
b 795 942
b 796 943
b 797 944
b 798 945
b 799 947 948
b 800 949
b 801 950
b 802 951
b 803 952
b 804 954
b 805 955
b 806 956
b 807 959 960
b 808 961
b 809 962
b 810 964
b 811 965
b 812 966
b 813 967
b 814 968
b 815 969
b 816 970
b 817 971
b 818 972
b 819 973
b 820 974
b 821 975
b 822 977 978
b 823 979
b 824 980
b 825 982
b 826 983 984
b 827 987
b 828 991
b 829 992
b 830 993 994
b 831 995
b 832 996
b 833 997
b 834 998
b 835 999
b 836 1000
b 837 1002
b 838 1004
b 839 1005
b 840 1006
b 841 1007
b 842 1008
b 843 1013
b 844 1014
b 845 1015
b 846 1016
b 847 1017
b 848 1019
b 849 1023 1024
b 850 1025
b 851 1026
b 852 1029
b 853 1030
b 854 1031 1032
b 855 1035
b 856 1037
b 857 1038
b 858 1041
b 859 1042
b 860 1043
b 861 1044
b 862 1045
b 863 1046
b 864 1047 1048
b 865 1049
b 866 1050
b 867 1053 1054
b 868 1056
b 869 1057
b 870 1059
b 871 1060
b 872 1061 1062
b 873 1065
b 874 1067 1068
b 875 1072
b 876 1074
b 877 1076
b 878 1077
b 879 1078
b 880 1085
b 881 1087
b 882 1088
b 883 1091
b 884 1092
b 885 1093
b 886 1095
b 887 1098
b 888 1101 1102
1 2
1 3
1 5
1 6
1 7
1 8
1 9
1 10
1 12
1 13
1 14
1 15
1 16
1 17
1 18
1 23
1 26
1 27
1 28
1 31
1 32
1 36
1 38
1 39
1 42
1 43
1 44
1 45
1 46
1 47
1 55
1 59
1 60
1 61
1 62
1 65
1 66
1 67
1 70
1 71
1 72
1 73
1 74
1 75
1 76
1 77
1 78
1 79
1 80
1 81
1 82
1 83
1 86
1 87
1 88
1 91
1 93
1 97
1 98
1 100
1 102
1 103
1 106
1 111
1 112
1 116
1 117
1 118
1 121
1 122
1 125
1 127
1 128
1 132
1 133
1 134
1 136
1 137
1 138
1 139
1 141
1 142
1 143
1 144
1 145
1 149
1 150
1 154
1 155
1 156
1 157
1 162
1 163
1 165
1 166
1 167
1 168
1 175
1 180
1 183
1 184
1 185
1 188
1 189
1 190
1 193
1 194
1 195
1 198
1 201
1 202
1 205
1 206
1 208
1 209
1 210
1 211
1 212
1 213
1 214
1 217
1 218
1 220
1 221
1 225
1 226
1 230
1 232
1 234
1 236
1 237
1 238
1 239
1 240
1 241
1 242
1 243
1 245
1 246
1 252
1 255
1 256
1 259
1 260
1 262
1 263
1 264
1 265
1 266
1 271
1 272
1 274
1 276
1 277
1 280
1 281
1 282
1 283
1 284
1 289
1 290
1 294
1 300
1 301
1 305
1 306
1 307
1 308
1 309
1 310
1 311
1 312
1 313
1 314
1 315
1 317
1 319
1 320
1 321
1 323
1 326
1 328
1 329
1 333
1 334
1 336
1 337
1 339
1 341
1 343
1 344
1 351
1 353
1 357
1 358
1 359
1 362
1 363
1 364
1 365
1 366
1 367
1 368
1 369
1 370
1 371
1 372
1 374
1 375
1 376
1 377
1 378
1 379
1 380
1 385
1 386
1 388
1 389
1 390
1 392
1 394
1 397
1 398
1 399
1 400
1 405
1 408
1 409
1 410
1 413
1 414
1 415
1 417
1 418
1 419
1 420
1 422
1 423
1 424
1 425
1 426
1 427
1 428
1 429
1 432
1 433
1 434
1 435
1 436
1 437
1 440
1 441
1 442
1 444
1 445
1 446
1 447
1 448
1 449
1 450
1 451
1 452
1 455
1 456
1 457
1 458
1 459
1 460
1 461
1 463
1 464
1 465
1 466
1 467
1 468
1 469
1 470
1 471
1 472
1 473
1 474
1 475
1 476
1 477
1 478
1 479
1 480
1 481
1 482
1 483
1 484
1 485
1 486
1 487
1 488
1 489
1 490
1 491
1 492
1 493
1 494
1 495
1 496
1 497
1 498
1 499
1 500
1 501
1 502
1 503
1 504
1 505
1 506
1 507
1 508
1 509
1 510
1 511
1 512
1 513
1 514
1 515
1 516
1 517
1 518
1 519
1 520
1 521
1 522
1 523
1 524
1 525
1 526
1 527
1 528
1 529
1 530
1 531
1 532
1 533
1 534
1 535
1 536
1 537
1 538
1 539
1 540
1 541
1 542
1 543
1 544
1 545
1 546
1 547
1 548
1 549
1 550
1 551
1 552
1 553
1 554
1 555
1 556
1 557
1 558
1 559
1 560
1 561
1 562
1 563
1 564
1 565
1 566
1 567
1 568
1 569
1 570
1 571
1 572
1 573
1 574
1 575
1 576
1 577
1 578
1 579
1 580
1 581
1 582
1 583
1 584
1 585
1 586
1 587
1 588
1 589
1 590
1 591
1 592
1 593
1 594
1 595
1 596
1 597
1 598
1 599
1 600
1 601
1 602
1 603
1 604
1 605
1 606
1 607
1 608
1 609
1 610
1 611
1 612
1 613
1 614
1 615
1 616
1 617
1 618
1 619
1 620
1 621
1 622
1 623
1 624
1 625
1 626
1 627
1 628
1 629
1 630
1 631
1 632
1 633
1 634
1 635
1 636
1 637
1 638
1 639
1 640
1 641
1 642
1 643
1 644
1 645
1 646
1 647
1 648
1 649
1 650
1 651
1 652
1 653
1 654
1 655
1 656
1 657
1 658
1 659
1 660
1 661
1 662
1 663
1 664
1 665
1 666
1 667
1 668
1 669
1 670
1 671
1 672
1 673
1 674
1 675
1 676
1 677
1 678
1 679
1 680
1 681
1 682
1 683
1 684
1 685
1 686
1 687
1 688
1 689
1 690
1 691
1 692
1 693
1 694
1 695
1 696
1 697
1 698
1 699
1 700
1 701
1 702
1 703
1 704
1 705
1 706
1 707
1 708
1 709
1 710
1 711
1 712
1 713
1 714
1 715
1 716
1 717
1 718
1 719
1 720
1 721
1 722
1 723
1 724
1 725
1 726
1 727
1 728
1 729
1 730
1 731
1 732
1 733
1 734
1 735
1 736
1 737
1 738
1 739
1 740
1 741
1 742
1 743
1 744
1 745
1 746
1 747
1 748
1 749
1 750
1 751
1 752
1 753
1 754
1 755
1 756
1 757
1 758
1 759
1 760
1 761
1 762
1 763
1 764
1 765
1 766
1 767
1 768
1 769
1 770
1 771
1 772
1 773
1 774
1 775
1 776
1 777
1 778
1 779
1 780
1 781
1 782
1 783
1 784
1 785
1 786
1 787
1 788
1 789
1 790
1 791
1 792
1 793
1 794
1 795
1 796
1 797
1 798
1 799
1 800
1 801
1 802
1 803
1 804
1 805
1 806
1 807
1 808
1 809
1 810
1 811
1 812
1 813
1 814
1 815
1 816
1 817
1 818
1 819
1 820
1 821
1 822
1 823
1 824
1 825
1 826
1 827
1 828
1 829
1 830
1 831
1 832
1 833
1 834
1 835
1 836
1 837
1 838
1 839
1 840
1 841
1 842
1 843
1 844
1 845
1 846
1 847
1 848
1 849
1 850
1 851
1 852
1 853
1 854
1 855
1 856
1 857
1 858
1 859
1 860
1 861
1 862
1 863
1 864
1 865
1 866
1 867
1 868
1 869
1 870
1 871
1 872
1 873
1 874
1 875
1 876
1 877
1 878
1 879
1 880
1 881
1 882
1 883
1 884
1 885
1 886
1 887
1 888
3 4
10 11
18 19
19 20
20 21
21 22
23 24
24 25
28 29
29 30
32 34
33 35
34 35
36 37
39 41
40 41
47 53
48 49
49 52
50 51
51 52
52 54
53 54
55 57
56 58
57 58
62 64
63 64
67 68
68 69
83 85
84 85
88 89
89 90
91 92
93 94
94 95
95 96
98 99
100 101
103 105
104 105
106 107
107 108
108 110
109 110
112 113
113 114
114 115
118 120
119 120
122 124
123 124
125 126
128 130
129 131
130 131
134 135
139 140
145 146
146 147
147 148
150 151
151 152
152 153
157 158
158 159
159 160
160 161
163 164
168 174
169 170
170 171
171 172
172 173
173 174
175 176
176 177
177 178
178 179
180 182
181 182
185 186
186 187
190 191
191 192
195 197
196 197
198 199
199 200
202 203
203 204
206 207
214 215
215 216
218 219
221 222
222 224
223 224
226 228
227 229
228 229
230 231
232 233
234 235
243 244
246 247
247 248
248 249
249 250
250 251
252 253
253 254
256 258
257 258
260 261
266 267
267 268
268 269
269 270
272 273
274 275
277 279
278 279
284 285
285 286
286 288
287 288
290 291
291 293
292 293
294 295
295 296
296 297
297 299
298 299
301 302
302 304
303 304
315 316
317 318
321 322
323 325
324 325
326 327
329 330
330 331
331 332
334 335
337 338
339 340
341 342
344 350
345 348
346 347
347 348
348 349
349 350
351 352
353 355
354 356
355 356
359 360
360 361
372 373
380 382
381 382
382 384
383 384
386 387
390 391
392 393
394 395
395 396
400 403
401 402
402 404
403 404
405 407
406 407
410 411
411 412
415 416
420 421
429 430
430 431
437 438
438 439
442 443
452 453
453 454
461 462
